20
 1 100 5
 2 152 8
 3 288 16
 4 238 14
 5 16 1
 6 180 12
 7 56 4
 8 221 17
 9 108 9
 10 11 1
 11 30 3
 12 126 14
 13 24 3
 14 63 9
 15 60 10
 16 45 9
 17 68 17
 18 21 7
 19 2 1
 20 19 19
220